BAYES
225
2 2 2 2 2 2 2 2 2 2 2 2 2 2 2 2 2 2 2 2 2 2 2 2 2 2 2 2 2 2 2 2 2 2 2 2 2 2 2 2 2 2 2 2 2 2 2 2 2 2 2 2 2 2 2 2 2 2 2 2 2 2 2 2 2 2 2 2 2 2 2 2 2 2 2 2 2 2 2 2 2 2 2 2 2 2 2 2 2 2 2 2 2 2 2 2 2 2 2 2 2 2 2 2 2 2 2 2 2 2 2 2 2 2 2 2 2 2 2 2 2 2 2 2 2 2 2 2 2 2 2 2 2 2 2 2 2 2 2 2 2 2 2 2 2 2 2 2 2 2 2 2 2 2 2 2 2 2 2 2 2 2 2 2 2 2 2 2 2 2 2 2 2 2 2 2 2 2 2 2 2 2 2 2 2 2 2 2 2 2 2 2 2 2 2 2 2 2 2 2 2 2 2 2 2 2 2 2 2 2 2 2 2 2 2 2 2 2 2 2 2 2 2 2 2
225
1 0
2 0 1
2 1 2
2 2 3
2 3 4
2 4 5
2 5 6
2 6 7
2 7 8
2 8 9
2 9 10
2 10 11
2 11 12
2 12 13
2 13 14
2 0 15
3 1 15 16
3 2 16 17
3 3 17 18
3 4 18 19
3 5 19 20
3 6 20 21
3 7 21 22
3 8 22 23
3 9 23 24
3 10 24 25
3 11 25 26
3 12 26 27
3 13 27 28
3 14 28 29
2 15 30
3 16 30 31
3 17 31 32
3 18 32 33
3 19 33 34
3 20 34 35
3 21 35 36
3 22 36 37
3 23 37 38
3 24 38 39
3 25 39 40
3 26 40 41
3 27 41 42
3 28 42 43
3 29 43 44
2 30 45
3 31 45 46
3 32 46 47
3 33 47 48
3 34 48 49
3 35 49 50
3 36 50 51
3 37 51 52
3 38 52 53
3 39 53 54
3 40 54 55
3 41 55 56
3 42 56 57
3 43 57 58
3 44 58 59
2 45 60
3 46 60 61
3 47 61 62
3 48 62 63
3 49 63 64
3 50 64 65
3 51 65 66
3 52 66 67
3 53 67 68
3 54 68 69
3 55 69 70
3 56 70 71
3 57 71 72
3 58 72 73
3 59 73 74
2 60 75
3 61 75 76
3 62 76 77
3 63 77 78
3 64 78 79
3 65 79 80
3 66 80 81
3 67 81 82
3 68 82 83
3 69 83 84
3 70 84 85
3 71 85 86
3 72 86 87
3 73 87 88
3 74 88 89
2 75 90
3 76 90 91
3 77 91 92
3 78 92 93
3 79 93 94
3 80 94 95
3 81 95 96
3 82 96 97
3 83 97 98
3 84 98 99
3 85 99 100
3 86 100 101
3 87 101 102
3 88 102 103
3 89 103 104
2 90 105
3 91 105 106
3 92 106 107
3 93 107 108
3 94 108 109
3 95 109 110
3 96 110 111
3 97 111 112
3 98 112 113
3 99 113 114
3 100 114 115
3 101 115 116
3 102 116 117
3 103 117 118
3 104 118 119
2 105 120
3 106 120 121
3 107 121 122
3 108 122 123
3 109 123 124
3 110 124 125
3 111 125 126
3 112 126 127
3 113 127 128
3 114 128 129
3 115 129 130
3 116 130 131
3 117 131 132
3 118 132 133
3 119 133 134
2 120 135
3 121 135 136
3 122 136 137
3 123 137 138
3 124 138 139
3 125 139 140
3 126 140 141
3 127 141 142
3 128 142 143
3 129 143 144
3 130 144 145
3 131 145 146
3 132 146 147
3 133 147 148
3 134 148 149
2 135 150
3 136 150 151
3 137 151 152
3 138 152 153
3 139 153 154
3 140 154 155
3 141 155 156
3 142 156 157
3 143 157 158
3 144 158 159
3 145 159 160
3 146 160 161
3 147 161 162
3 148 162 163
3 149 163 164
2 150 165
3 151 165 166
3 152 166 167
3 153 167 168
3 154 168 169
3 155 169 170
3 156 170 171
3 157 171 172
3 158 172 173
3 159 173 174
3 160 174 175
3 161 175 176
3 162 176 177
3 163 177 178
3 164 178 179
2 165 180
3 166 180 181
3 167 181 182
3 168 182 183
3 169 183 184
3 170 184 185
3 171 185 186
3 172 186 187
3 173 187 188
3 174 188 189
3 175 189 190
3 176 190 191
3 177 191 192
3 178 192 193
3 179 193 194
2 180 195
3 181 195 196
3 182 196 197
3 183 197 198
3 184 198 199
3 185 199 200
3 186 200 201
3 187 201 202
3 188 202 203
3 189 203 204
3 190 204 205
3 191 205 206
3 192 206 207
3 193 207 208
3 194 208 209
2 195 210
3 196 210 211
3 197 211 212
3 198 212 213
3 199 213 214
3 200 214 215
3 201 215 216
3 202 216 217
3 203 217 218
3 204 218 219
3 205 219 220
3 206 220 221
3 207 221 222
3 208 222 223
3 209 223 224

2
0.0842966 0.915703
4
0.0257472 0.974253 0.384882 0.615118
4
0.410445 0.589555 0.168985 0.831015
4
0.903378 0.0966225 0.439774 0.560226
4
0.0 1.0 1.0 0.0
4
1.0 0.0 0.0 1.0
4
0.11312 0.88688 0.276849 0.723151
4
1.0 0.0 0.0 1.0
4
0.903447 0.0965526 0.933731 0.0662689
4
0.48037 0.51963 0.0735328 0.926467
4
1.0 0.0 0.0 1.0
4
0.38886 0.61114 0.841633 0.158367
4
0.473156 0.526844 0.81623 0.18377
4
0.858039 0.141961 0.751876 0.248124
4
0.0 1.0 1.0 0.0
4
0.981762 0.0182381 0.466797 0.533203
8
1.0 0.0 1.0 0.0 1.0 0.0 0.0 1.0
8
1.0 0.0 1.0 0.0 0.0 1.0 1.0 0.0
8
1.0 0.0 0.0 1.0 1.0 0.0 0.0 1.0
8
1.0 0.0 0.0 1.0 1.0 0.0 1.0 0.0
8
0.0261672 0.973833 0.528469 0.471531 0.573061 0.426939 0.884206 0.115794
8
0.0 1.0 1.0 0.0 0.0 1.0 1.0 0.0
8
0.0 1.0 0.0 1.0 1.0 0.0 1.0 0.0
8
0.32594 0.67406 0.271255 0.728745 0.395284 0.604716 0.632943 0.367057
8
1.0 0.0 1.0 0.0 1.0 0.0 0.0 1.0
8
1.0 0.0 1.0 0.0 0.0 1.0 0.0 1.0
8
1.0 0.0 0.0 1.0 1.0 0.0 0.0 1.0
8
1.0 0.0 1.0 0.0 1.0 0.0 0.0 1.0
8
0.0 1.0 0.0 1.0 1.0 0.0 1.0 0.0
8
0.787575 0.212425 0.940952 0.0590476 0.266869 0.733131 0.18286 0.81714
4
0.757222 0.242778 0.0498295 0.950171
8
0.0 1.0 1.0 0.0 0.0 1.0 1.0 0.0
8
0.0863945 0.913605 0.846933 0.153067 0.960358 0.0396417 0.442391 0.557609
8
0.890699 0.109301 0.37145 0.62855 0.0233953 0.976605 0.101384 0.898616
8
0.964958 0.0350415 0.328654 0.671346 0.165665 0.834335 0.284548 0.715452
8
0.126194 0.873806 0.899561 0.100439 0.732298 0.267702 0.913769 0.086231
8
0.999167 0.000833379 0.0966287 0.903371 0.414409 0.585591 0.756388 0.243612
8
1.0 0.0 0.0 1.0 0.0 1.0 0.0 1.0
8
0.583897 0.416103 0.490313 0.509687 0.534159 0.465841 0.0262882 0.973712
8
1.0 0.0 0.0 1.0 0.0 1.0 0.0 1.0
8
0.0 1.0 0.0 1.0 0.0 1.0 1.0 0.0
8
0.655837 0.344163 0.323876 0.676124 0.555319 0.444681 0.49635 0.50365
8
0.0 1.0 1.0 0.0 1.0 0.0 0.0 1.0
8
0.995841 0.00415944 0.813719 0.186281 0.270244 0.729756 0.639221 0.360779
8
1.0 0.0 0.0 1.0 0.0 1.0 0.0 1.0
4
0.346535 0.653465 0.278167 0.721833
8
1.0 0.0 0.0 1.0 1.0 0.0 0.0 1.0
8
1.0 0.0 1.0 0.0 0.0 1.0 1.0 0.0
8
0.340083 0.659917 0.499868 0.500132 0.966168 0.0338318 0.99203 0.00796986
8
0.0 1.0 0.0 1.0 1.0 0.0 0.0 1.0
8
0.0 1.0 0.0 1.0 1.0 0.0 0.0 1.0
8
0.188183 0.811817 0.423104 0.576896 0.259887 0.740113 0.466349 0.533651
8
0.132663 0.867337 0.0942071 0.905793 0.134188 0.865812 0.860333 0.139667
8
1.0 0.0 0.0 1.0 0.0 1.0 1.0 0.0
8
0.362267 0.637733 0.985256 0.0147435 0.788875 0.211125 0.354298 0.645702
8
1.0 0.0 0.0 1.0 0.0 1.0 1.0 0.0
8
0.0328656 0.967134 0.556576 0.443424 0.740562 0.259438 0.340619 0.659381
8
0.0 1.0 0.0 1.0 1.0 0.0 0.0 1.0
8
0.332657 0.667343 0.0464641 0.953536 0.089358 0.910642 0.466845 0.533155
8
0.326779 0.673221 0.948714 0.0512859 0.0863789 0.913621 0.348964 0.651036
4
1.0 0.0 0.0 1.0
8
0.419359 0.580641 0.697961 0.302039 0.065529 0.934471 0.815242 0.184758
8
0.210263 0.789737 0.394495 0.605505 0.40835 0.59165 0.959151 0.0408491
8
0.0 1.0 1.0 0.0 0.0 1.0 1.0 0.0
8
1.0 0.0 0.0 1.0 0.0 1.0 0.0 1.0
8
1.0 0.0 1.0 0.0 0.0 1.0 1.0 0.0
8
0.869788 0.130212 0.307069 0.692931 0.0570334 0.942967 0.30389 0.69611
8
0.0 1.0 0.0 1.0 0.0 1.0 1.0 0.0
8
0.446552 0.553448 0.0440564 0.955944 0.932986 0.0670135 0.854902 0.145098
8
0.0 1.0 0.0 1.0 0.0 1.0 1.0 0.0
8
0.0 1.0 0.0 1.0 1.0 0.0 0.0 1.0
8
0.727328 0.272672 0.637871 0.362129 0.0983309 0.901669 0.648402 0.351598
8
0.8064 0.1936 0.518191 0.481809 0.16563 0.83437 0.863434 0.136566
8
0.381785 0.618215 0.631698 0.368302 0.54533 0.45467 0.295902 0.704098
8
1.0 0.0 1.0 0.0 0.0 1.0 0.0 1.0
4
0.512756 0.487244 0.377155 0.622845
8
0.0 1.0 1.0 0.0 1.0 0.0 0.0 1.0
8
0.841808 0.158192 0.596203 0.403797 0.647631 0.352369 0.569136 0.430864
8
1.0 0.0 0.0 1.0 1.0 0.0 0.0 1.0
8
0.258265 0.741735 0.415795 0.584205 0.55781 0.44219 0.64005 0.35995
8
1.0 0.0 0.0 1.0 1.0 0.0 0.0 1.0
8
0.0225348 0.977465 0.20377 0.79623 0.275761 0.724239 0.535291 0.464709
8
0.692945 0.307055 0.750967 0.249033 0.0864067 0.913593 0.261655 0.738345
8
0.0 1.0 1.0 0.0 1.0 0.0 1.0 0.0
8
0.853468 0.146532 0.410589 0.589411 0.890139 0.109861 0.946102 0.0538976
8
0.625868 0.374132 0.204367 0.795633 0.378746 0.621254 0.183678 0.816322
8
0.42624 0.57376 0.286819 0.713181 0.780369 0.219631 0.939227 0.0607735
8
0.0 1.0 0.0 1.0 1.0 0.0 1.0 0.0
8
0.0 1.0 0.0 1.0 1.0 0.0 1.0 0.0
8
0.271212 0.728788 0.361878 0.638122 0.792599 0.207401 0.890606 0.109394
4
0.0 1.0 1.0 0.0
8
0.437095 0.562905 0.355338 0.644662 0.690177 0.309823 0.400046 0.599954
8
0.894544 0.105456 0.778793 0.221207 0.164884 0.835116 0.738961 0.261039
8
0.0 1.0 1.0 0.0 0.0 1.0 1.0 0.0
8
0.106021 0.893979 0.603033 0.396967 0.71264 0.28736 0.603073 0.396927
8
0.140121 0.859879 0.851092 0.148908 0.20639 0.79361 0.829256 0.170744
8
1.0 0.0 0.0 1.0 0.0 1.0 0.0 1.0
8
1.0 0.0 1.0 0.0 0.0 1.0 1.0 0.0
8
1.0 0.0 1.0 0.0 1.0 0.0 0.0 1.0
8
0.0 1.0 0.0 1.0 0.0 1.0 1.0 0.0
8
0.666021 0.333979 0.568699 0.431301 0.290742 0.709258 0.269094 0.730906
8
1.0 0.0 1.0 0.0 0.0 1.0 0.0 1.0
8
0.0 1.0 0.0 1.0 0.0 1.0 1.0 0.0
8
1.0 0.0 1.0 0.0 0.0 1.0 1.0 0.0
8
0.801252 0.198748 0.474131 0.525869 0.423499 0.576501 0.881919 0.118081
4
0.463683 0.536317 0.481915 0.518085
8
0.0 1.0 1.0 0.0 0.0 1.0 0.0 1.0
8
0.0 1.0 0.0 1.0 0.0 1.0 1.0 0.0
8
0.0 1.0 1.0 0.0 1.0 0.0 0.0 1.0
8
1.0 0.0 1.0 0.0 1.0 0.0 0.0 1.0
8
1.0 0.0 1.0 0.0 0.0 1.0 1.0 0.0
8
0.562679 0.437321 0.158163 0.841837 0.528289 0.471711 0.0263625 0.973637
8
0.97816 0.0218397 0.455712 0.544288 0.700096 0.299904 0.0940527 0.905947
8
1.0 0.0 1.0 0.0 0.0 1.0 1.0 0.0
8
0.946869 0.0531307 0.874214 0.125786 0.731872 0.268128 0.216586 0.783414
8
0.734934 0.265066 0.285942 0.714058 0.690669 0.309331 0.75038 0.24962
8
0.0 1.0 1.0 0.0 0.0 1.0 0.0 1.0
8
0.69669 0.30331 0.659781 0.340219 0.517798 0.482202 0.723053 0.276947
8
1.0 0.0 0.0 1.0 1.0 0.0 1.0 0.0
8
0.0508095 0.94919 0.06905 0.93095 0.514543 0.485457 0.883285 0.116715
4
1.0 0.0 0.0 1.0
8
0.785133 0.214867 0.677998 0.322002 0.555426 0.444574 0.520067 0.479933
8
0.246095 0.753905 0.270447 0.729553 0.150746 0.849254 0.240926 0.759074
8
1.0 0.0 0.0 1.0 0.0 1.0 0.0 1.0
8
1.0 0.0 1.0 0.0 0.0 1.0 1.0 0.0
8
0.973445 0.0265554 0.957034 0.0429657 0.0951159 0.904884 0.60597 0.39403
8
0.0 1.0 1.0 0.0 1.0 0.0 1.0 0.0
8
0.648627 0.351373 0.00255939 0.997441 0.259923 0.740077 0.204053 0.795947
8
0.223863 0.776137 0.450149 0.549851 0.793073 0.206927 0.37461 0.62539
8
0.288894 0.711106 0.876448 0.123552 0.066012 0.933988 0.286332 0.713668
8
1.0 0.0 0.0 1.0 1.0 0.0 0.0 1.0
8
0.882046 0.117954 0.905764 0.0942365 0.857664 0.142336 0.977162 0.0228377
8
0.865508 0.134492 0.141328 0.858672 0.632247 0.367753 0.756637 0.243363
8
1.0 0.0 1.0 0.0 0.0 1.0 0.0 1.0
8
0.88394 0.11606 0.697958 0.302042 0.059466 0.940534 0.677014 0.322986
4
0.0 1.0 1.0 0.0
8
0.949015 0.0509849 0.816553 0.183447 0.252239 0.747761 0.316811 0.683189
8
0.19579 0.80421 0.693752 0.306248 0.886511 0.113489 0.0964201 0.90358
8
0.792275 0.207725 0.954084 0.0459156 0.552961 0.447039 0.304008 0.695992
8
0.694289 0.305711 0.936255 0.0637451 0.576229 0.423771 0.0530441 0.946956
8
1.0 0.0 1.0 0.0 0.0 1.0 1.0 0.0
8
1.0 0.0 0.0 1.0 1.0 0.0 1.0 0.0
8
0.344061 0.655939 0.21737 0.78263 0.193459 0.806541 0.660871 0.339129
8
1.0 0.0 0.0 1.0 0.0 1.0 0.0 1.0
8
0.850347 0.149653 0.439753 0.560247 0.483384 0.516616 0.154356 0.845644
8
0.0 1.0 0.0 1.0 0.0 1.0 1.0 0.0
8
1.0 0.0 0.0 1.0 0.0 1.0 1.0 0.0
8
0.188036 0.811964 0.0581541 0.941846 0.918686 0.0813136 0.583081 0.416919
8
1.0 0.0 0.0 1.0 0.0 1.0 1.0 0.0
8
0.847903 0.152097 0.442613 0.557387 0.942637 0.0573632 0.905976 0.0940242
4
0.873059 0.126941 0.756323 0.243677
8
0.0 1.0 1.0 0.0 1.0 0.0 1.0 0.0
8
0.0 1.0 0.0 1.0 0.0 1.0 1.0 0.0
8
0.0 1.0 1.0 0.0 0.0 1.0 0.0 1.0
8
1.0 0.0 1.0 0.0 0.0 1.0 1.0 0.0
8
0.18524 0.81476 0.394155 0.605845 0.729271 0.270729 0.627853 0.372147
8
1.0 0.0 0.0 1.0 1.0 0.0 0.0 1.0
8
0.566294 0.433706 0.302249 0.697751 0.55155 0.44845 0.10041 0.89959
8
1.0 0.0 0.0 1.0 0.0 1.0 0.0 1.0
8
0.98243 0.0175703 0.628436 0.371564 0.949668 0.0503324 0.728485 0.271515
8
0.828668 0.171332 0.933512 0.0664882 0.0322814 0.967719 0.63481 0.36519
8
0.217521 0.782479 0.0289646 0.971035 0.54415 0.45585 0.845374 0.154626
8
1.0 0.0 1.0 0.0 0.0 1.0 1.0 0.0
8
1.0 0.0 0.0 1.0 0.0 1.0 0.0 1.0
8
1.0 0.0 0.0 1.0 0.0 1.0 1.0 0.0
4
0.0 1.0 1.0 0.0
8
0.0 1.0 0.0 1.0 1.0 0.0 0.0 1.0
8
1.0 0.0 0.0 1.0 0.0 1.0 1.0 0.0
8
0.0 1.0 1.0 0.0 1.0 0.0 1.0 0.0
8
0.0 1.0 1.0 0.0 0.0 1.0 0.0 1.0
8
0.813296 0.186704 0.611142 0.388858 0.144052 0.855948 0.990049 0.00995082
8
0.251607 0.748393 0.712667 0.287333 0.689136 0.310864 0.634316 0.365684
8
0.0 1.0 0.0 1.0 1.0 0.0 1.0 0.0
8
0.569769 0.430231 0.585691 0.414309 0.500843 0.499157 0.35928 0.64072
8
1.0 0.0 1.0 0.0 0.0 1.0 1.0 0.0
8
0.0771605 0.92284 0.121828 0.878172 0.73017 0.26983 0.811075 0.188925
8
0.0 1.0 1.0 0.0 0.0 1.0 1.0 0.0
8
0.419228 0.580772 0.246182 0.753818 0.614227 0.385773 0.0535438 0.946456
8
0.0 1.0 0.0 1.0 1.0 0.0 0.0 1.0
8
1.0 0.0 1.0 0.0 1.0 0.0 0.0 1.0
4
1.0 0.0 0.0 1.0
8
0.464981 0.535019 0.0879801 0.91202 0.219077 0.780923 0.25507 0.74493
8
1.0 0.0 0.0 1.0 1.0 0.0 0.0 1.0
8
0.398432 0.601568 0.532094 0.467906 0.0622218 0.937778 0.323523 0.676477
8
0.308404 0.691596 0.937751 0.0622491 0.00486515 0.995135 0.64362 0.35638
8
0.0 1.0 0.0 1.0 0.0 1.0 1.0 0.0
8
0.44961 0.55039 0.716745 0.283255 0.393286 0.606714 0.493615 0.506385
8
0.0 1.0 0.0 1.0 0.0 1.0 1.0 0.0
8
1.0 0.0 1.0 0.0 1.0 0.0 0.0 1.0
8
0.763569 0.236431 0.706924 0.293076 0.789835 0.210165 0.0870921 0.912908
8
0.0982396 0.90176 0.024843 0.975157 0.663111 0.336889 0.741859 0.258141
8
1.0 0.0 1.0 0.0 0.0 1.0 0.0 1.0
8
0.52112 0.47888 0.0436105 0.95639 0.243003 0.756997 0.0147355 0.985264
8
0.0 1.0 0.0 1.0 1.0 0.0 0.0 1.0
8
1.0 0.0 0.0 1.0 1.0 0.0 0.0 1.0
4
0.113519 0.886481 0.920818 0.0791817
8
0.903355 0.0966454 0.0079104 0.99209 0.313187 0.686813 0.00159423 0.998406
8
1.0 0.0 0.0 1.0 1.0 0.0 0.0 1.0
8
0.538912 0.461088 0.670143 0.329857 0.728932 0.271068 0.0600319 0.939968
8
0.971935 0.0280654 0.0747674 0.925233 0.893165 0.106835 0.465312 0.534688
8
1.0 0.0 1.0 0.0 0.0 1.0 0.0 1.0
8
1.0 0.0 0.0 1.0 1.0 0.0 0.0 1.0
8
1.0 0.0 1.0 0.0 0.0 1.0 0.0 1.0
8
0.207202 0.792798 0.093772 0.906228 0.382924 0.617076 0.674603 0.325397
8
1.0 0.0 1.0 0.0 0.0 1.0 1.0 0.0
8
0.963007 0.0369934 0.348314 0.651686 0.714112 0.285888 0.428319 0.571681
8
1.0 0.0 0.0 1.0 1.0 0.0 0.0 1.0
8
1.0 0.0 0.0 1.0 0.0 1.0 0.0 1.0
8
0.0 1.0 1.0 0.0 0.0 1.0 1.0 0.0
8
0.22267 0.77733 0.647307 0.352693 0.567449 0.432551 0.65972 0.34028
4
0.780964 0.219036 0.766913 0.233087
8
0.0545109 0.945489 0.58786 0.41214 0.863526 0.136474 0.402825 0.597175
8
1.0 0.0 1.0 0.0 0.0 1.0 1.0 0.0
8
0.0 1.0 1.0 0.0 0.0 1.0 0.0 1.0
8
0.0 1.0 1.0 0.0 1.0 0.0 1.0 0.0
8
0.559593 0.440407 0.845724 0.154276 0.776225 0.223775 0.2069 0.7931
8
1.0 0.0 0.0 1.0 0.0 1.0 0.0 1.0
8
1.0 0.0 0.0 1.0 0.0 1.0 0.0 1.0
8
1.0 0.0 1.0 0.0 1.0 0.0 0.0 1.0
8
0.81651 0.18349 0.526639 0.473361 0.564723 0.435277 0.572547 0.427453
8
0.235021 0.764979 0.839781 0.160219 0.364526 0.635474 0.530231 0.469769
8
0.91808 0.0819198 0.0898237 0.910176 0.638383 0.361617 0.694305 0.305695
8
1.0 0.0 0.0 1.0 0.0 1.0 1.0 0.0
8
0.0 1.0 1.0 0.0 1.0 0.0 0.0 1.0
8
0.0 1.0 1.0 0.0 0.0 1.0 1.0 0.0